c Created with the Wolfram Language : www.wolfram.com
c 
p edge 70 250
e 1 2
e 4 5
e 7 9
e 1 10
e 2 11
e 5 11
e 6 11
e 7 13
e 1 15
e 3 15
e 10 15
e 12 15
e 1 17
e 8 17
e 4 18
e 10 18
e 10 19
e 13 19
e 2 20
e 10 20
e 11 20
e 14 21
e 13 22
e 3 23
e 9 23
e 14 23
e 21 23
e 16 24
e 20 24
e 20 25
e 2 26
e 8 26
e 10 26
e 11 26
e 18 26
e 21 26
e 24 26
e 15 27
e 21 27
e 3 28
e 13 28
e 15 28
e 27 28
e 2 29
e 5 29
e 21 29
e 26 30
e 25 31
e 19 32
e 21 32
e 29 32
e 8 33
e 9 33
e 14 33
e 32 33
e 16 35
e 19 35
e 22 35
e 10 36
e 19 36
e 32 36
e 33 36
e 16 37
e 18 37
e 29 37
e 31 37
e 5 38
e 17 38
e 20 38
e 22 38
e 25 38
e 36 38
e 17 39
e 29 39
e 34 39
e 6 40
e 17 40
e 39 40
e 1 41
e 2 41
e 4 41
e 20 41
e 33 41
e 4 42
e 7 42
e 17 42
e 30 42
e 7 43
e 20 43
e 11 44
e 12 44
e 16 44
e 21 44
e 23 44
e 29 44
e 36 44
e 39 44
e 2 45
e 35 45
e 40 45
e 17 46
e 20 46
e 35 46
e 4 47
e 14 47
e 18 47
e 36 47
e 40 47
e 46 47
e 13 48
e 15 48
e 21 48
e 22 48
e 23 48
e 27 48
e 35 48
e 42 48
e 6 49
e 16 49
e 30 49
e 1 50
e 7 50
e 8 50
e 12 51
e 13 51
e 14 51
e 23 51
e 40 51
e 47 51
e 8 52
e 14 52
e 27 52
e 49 52
e 10 53
e 19 53
e 37 53
e 42 53
e 43 53
e 49 53
e 4 54
e 11 54
e 26 54
e 32 54
e 35 54
e 1 55
e 18 55
e 30 55
e 31 55
e 34 55
e 45 55
e 46 55
e 24 56
e 28 56
e 34 56
e 35 56
e 36 56
e 2 57
e 17 57
e 26 57
e 30 57
e 40 57
e 50 57
e 51 57
e 21 58
e 29 58
e 36 58
e 47 58
e 49 58
e 50 58
e 52 58
e 3 59
e 9 59
e 14 59
e 17 59
e 19 59
e 32 59
e 14 60
e 16 60
e 23 60
e 26 60
e 28 60
e 37 60
e 39 60
e 58 60
e 13 61
e 18 61
e 51 61
e 52 61
e 59 61
e 1 62
e 5 62
e 16 62
e 20 62
e 22 62
e 31 62
e 32 62
e 4 63
e 8 63
e 14 63
e 31 63
e 33 63
e 42 63
e 9 64
e 13 64
e 16 64
e 55 64
e 21 65
e 42 65
e 46 65
e 12 66
e 18 66
e 22 66
e 23 66
e 36 66
e 60 66
e 7 67
e 15 67
e 18 67
e 23 67
e 31 67
e 33 67
e 34 67
e 39 67
e 50 67
e 51 67
e 57 67
e 6 68
e 27 68
e 28 68
e 35 68
e 42 68
e 53 68
e 13 69
e 22 69
e 40 69
e 49 69
e 51 69
e 63 69
e 2 70
e 6 70
e 11 70
e 14 70
e 16 70
e 23 70
e 25 70
e 46 70
e 55 70
e 66 70
e 67 70
e 68 70
